10
67
0 1 4 87
0 2 5 58
0 3 59 38
0 4 32 52
0 5 19 17
0 6 1 67
0 7 43 61
0 8 71 62
0 9 14 9
1 2 79 0
1 3 9 99
1 4 32 88
1 5 21 5
1 6 33 26
1 7 75 16
1 8 14 55
1 9 93 75
2 3 33 88
2 4 78 24
2 5 28 91
2 6 67 91
2 7 93 7
2 8 54 15
2 9 87 37
3 4 82 42
3 5 60 50
3 6 24 64
3 7 17 72
3 8 25 89
3 9 46 95
4 5 28 33
4 6 83 76
4 7 1 71
4 8 70 57
4 9 55 84
5 6 10 27
5 7 2 92
5 8 56 69
5 9 22 8
6 7 93 66
6 8 4 15
6 9 51 25
7 8 87 39
7 9 37 6
8 9 33 87